NAME : ClusterId_256 
COMMENT : (Gillet and Johnson) 
TYPE : CVRP 
DIMENSION : 15 
EDGE_WEIGHT_TYPE : EUC_2D 
CAPACITY : 500 
NODE_COORD_SECTION 
256 -75 0 
222 -96 -36 
130 -94 -30 
212 -80 -31 
91 -83 -30 
62 -84 -29 
131 -94 -20 
54 -97 9 
229 -92 12 
13 -77 -16 
50 -82 -14 
31 -62 -2 
19 -65 0 
138 -70 6 
125 -82 -3 
DEMAND_SECTION 
256 800
222 77
130 87
212 18
91 33
62 44
131 17
54 19
229 2
13 50
50 79
31 24
19 47
138 85
125 11
DEPOT_SECTION 
256
 -1
EOF